000 000 000 001 002 001 001 001 000 001 001 001 001 002 002 003 003 003 005 006 009 013 021 016 007 011 008 005 005 006 007
000 000 000 001 001 001 001 001 000 001 001 002 002 002 002 004 003 004 004 010 012 010 008 012 007 006 007 005 008 005 004
000 000 000 001 001 001 001 001 001 001 001 003 002 001 002 002 005 008 009 011 015 014 013 006 005 006 006 005 005 004 004
000 000 000 001 001 001 001 000 001 002 002 003 002 001 002 002 005 007 010 013 021 020 016 004 002 003 007 009 005 006 003
000 000 000 000 000 001 001 000 001 002 002 002 002 002 002 002 002 005 010 016 013 024 010 003 004 006 017 013 010 005 003
000 000 000 000 001 001 001 001 002 004 002 002 002 001 002 001 001 002 011 012 018 033 011 003 004 006 011 014 008 005 004
000 000 000 001 001 001 001 001 002 003 004 003 002 001 001 001 001 001 003 007 010 009 008 004 004 005 007 012 009 005 006
001 001 001 001 002 001 001 001 003 003 004 003 001 000 000 001 001 001 003 006 008 021 016 008 008 009 007 008 008 005 007
001 002 001 002 001 002 001 001 004 003 003 002 001 002 001 002 001 001 001 005 007 015 010 008 012 010 006 008 011 007 007
001 001 001 002 002 001 001 002 003 003 002 002 002 002 002 003 002 004 003 005 009 017 039 039 012 012 005 008 013 010 008
002 002 001 001 000 000 001 002 003 002 003 004 003 005 002 002 002 003 005 004 009 021 043 029 021 007 005 008 026 011 008
001 002 001 001 000 002 002 004 004 005 004 004 001 002 001 001 002 003 006 005 016 023 057 031 017 012 012 018 041 014 009
001 001 002 001 003 005 004 005 004 006 004 003 003 007 004 003 002 003 003 003 006 012 036 064 017 008 012 020 034 020 010
000 001 002 003 004 007 006 008 007 004 002 003 002 003 007 004 002 002 002 003 014 014 041 048 035 015 010 044 031 025 012
000 001 001 003 006 008 009 010 012 007 003 003 002 005 006 003 001 001 001 004 017 016 046 050 041 019 012 042 029 022 006
000 000 001 004 006 010 015 020 015 006 003 002 001 003 005 002 001 001 002 003 017 021 029 043 047 026 024 062 075 048 015
000 000 001 002 007 013 025 026 014 009 004 004 002 001 002 002 001 001 001 005 005 007 025 029 072 039 035 060 092 040 026
000 000 001 001 003 011 025 020 014 011 006 003 002 001 001 001 001 001 001 006 008 008 035 025 085 035 044 064 075 061 037
003 004 002 001 005 017 018 011 011 007 005 003 002 001 000 001 001 002 002 003 011 011 024 040 054 056 056 066 045 071 050
003 006 003 005 008 011 009 006 006 008 003 004 002 000 000 001 003 009 008 003 020 029 030 046 089 072 058 042 028 054 048
006 006 011 013 010 012 008 004 004 006 004 004 001 000 000 003 005 016 009 005 033 029 046 042 046 046 050 035 052 078 092
006 006 009 014 009 011 011 006 004 004 006 002 001 000 001 013 020 021 013 012 038 044 060 040 043 039 042 035 047 064 075
003 002 006 010 009 013 017 009 004 004 003 002 001 001 002 040 037 023 018 031 039 049 050 048 045 041 039 029 040 038 053
004 003 005 006 029 014 013 004 003 002 003 002 001 001 003 048 039 033 035 038 043 045 044 057 051 053 042 025 039 028 046
004 004 009 008 012 014 009 003 001 001 002 002 002 001 003 029 038 052 052 050 057 041 057 054 052 056 040 025 017 025 017
003 005 006 006 016 009 002 001 002 002 003 002 003 001 002 009 029 055 051 057 061 031 064 056 030 040 021 015 011 014 010
004 003 003 003 004 001 001 001 002 001 002 002 002 002 002 004 017 037 052 047 044 048 051 046 034 029 011 009 010 012 008
007 003 002 003 001 000 000 001 001 001 002 003 004 003 004 005 017 026 022 018 021 034 039 061 038 015 008 007 011 009 007
002 004 002 002 001 001 001 001 001 001 001 003 005 005 003 002 005 013 005 005 005 024 020 022 015 012 008 009 012 011 011
001 002 002 001 001 001 000 000 000 001 001 003 006 008 005 004 003 004 002 003 002 009 012 009 008 007 008 008 009 014 013
001 002 002 002 002 000 001 000 001 001 002 002 004 006 005 003 002 002 001 002 003 005 008 006 005 005 006 007 009 013 015
001 002 002 003 004 001 001 000 001 001 001 002 003 003 004 002 002 002 002 002 002 003 006 003 002 004 004 007 005 010 010
001 001 001 003 003 001 000 000 000 001 001 003 008 012 003 001 001 002 002 002 002 003 004 002 001 004 004 005 006 010 010
000 001 000 001 002 001 000 000 001 001 002 006 014 017 010 003 001 001 001 001 002 002 002 002 001 001 001 003 006 011 009
000 001 000 001 001 001 001 000 001 002 003 005 018 008 004 002 002 001 002 001 001 001 002 001 000 000 000 002 006 012 009
000 001 001 002 002 001 001 001 003 002 002 004 012 004 003 003 002 003 003 004 001 001 001 000 000 000 000 002 007 017 013
001 001 002 006 001 001 001 001 003 002 002 004 006 002 002 004 006 005 005 013 003 001 000 000 000 000 000 001 003 005 007
001 001 002 003 001 000 000 001 002 004 003 003 003 002 005 028 019 008 007 014 004 000 000 000 000 000 000 000 001 001 005
001 002 001 001 000 000 000 001 001 004 003 004 003 002 005 020 015 016 018 014 006 001 000 000 000 000 000 000 000 001 002
001 001 001 000 000 000 001 001 002 004 005 003 002 003 007 011 013 013 010 008 003 002 000 000 000 000 000 000 000 000 001
000 001 001 001 001 000 001 002 002 002 006 002 002 003 004 005 008 011 007 005 002 002 001 000 000 000 000 000 000 000 000
000 001 000 001 001 001 001 003 002 002 003 001 002 006 004 004 008 008 009 006 002 002 002 001 001 001 000 000 000 000 000
000 000 001 001 001 000 001 002 004 002 002 000 004 004 004 007 009 010 020 006 002 013 003 001 002 003 000 000 000 -99 000
002 001 001 001 001 000 000 002 006 004 003 003 005 003 004 008 017 020 028 005 006 038 019 010 003 006 000 000 000 -99 000
008 006 004 002 001 000 000 002 005 007 008 005 002 002 004 008 023 025 030 009 024 050 028 011 012 005 003 001 000 -99 000
005 005 004 003 003 001 000 001 006 008 012 006 003 001 003 006 012 017 007 005 035 078 026 019 014 005 003 003 -99 001 001
003 003 004 003 001 001 001 001 002 007 012 007 003 001 002 006 009 011 009 005 024 029 015 023 013 005 003 003 002 002 003
002 003 002 002 001 001 001 001 002 003 004 007 003 001 001 003 005 012 007 002 006 007 006 004 005 003 002 002 003 003 002
002 000 002 001 001 001 001 002 002 001 002 003 004 001 001 002 005 010 007 002 001 001 002 002 002 001 001 001 004 005 002
001 000 000 000 000 001 002 003 002 001 000 003 003 001 001 001 007 005 003 001 000 001 001 001 001 000 000 000 001 002 001
000 000 000 000 000 000 002 002 003 003 001 002 003 001 001 002 004 004 001 000 000 000 001 002 001 000 000 000 000 001 000
000 000 000 000 000 000 000 002 003 004 003 003 001 001 001 005 005 004 001 000 000 000 003 003 003 000 000 000 000 000 000
000 000 000 000 000 000 000 000 001 003 003 002 002 001 004 007 006 003 001 000 000 000 002 001 001 000 -99 000 000 000 -99
000 000 000 000 000 000 000 000 000 001 002 002 002 002 004 004 004 001 001 000 000 000 000 000 000 000 -99 000 000 000 -99
000 000 000 000 000 000 000 000 000 000 001 001 002 002 001 003 004 002 001 000 000 000 000 000 -99 -99 -99 000 000 000 -99
